4 
5  20 42 58 
6  18 30 43 58 
7  13 31 46 
8  01 16 31 46 
9  01 16 31 46 
10  01 16 31 46 
11  01 16 31 46 
12  01 16 31 46 
13  01 16 31 46 
14  01 16 31 46 
15  01 16 31 46 
16  01 16 31 46 
17  01 16 31 46 
18  01 16 31 46 
19  02 18 33 48 
20  03 18 33 48 
21  03 18 33 48 
22  03 17 32 47 
23  02 17 
0 
